
Starting CP-SAT solver v9.15.6755
Parameters: random_seed: 2026074372 max_time_in_seconds: 2500 log_search_progress: true cp_model_presolve: true linearization_level: 2 num_search_workers: 4 cp_model_probing_level: 2 symmetry_level: 2

Initial satisfaction model '': (model_fingerprint: 0xddc9b336b0b15fa5)
#Variables: 724 (608 primary variables)
  - 724 Booleans in [0,1]
#kBoolAnd: 110 (#enforced: 110) (#literals: 330)
#kBoolOr: 110 (#enforced: 110) (#literals: 220)
#kExactlyOne: 87 (#literals: 261)
#kLinear1: 32 (#enforced: 6)
#kLinear2: 336 (#enforced: 336) (#complex_domain: 110)
#kLinear3: 1'600 (#enforced: 6)
#kLinearN: 1'132 (#enforced: 243) (#terms: 9'111)

Starting presolve at 0.00s
  4.63e-04s  0.00e+00d  [DetectDominanceRelations] 
  5.77e-03s  0.00e+00d  [PresolveToFixPoint] #num_loops=3 #num_dual_strengthening=1 
  2.55e-05s  0.00e+00d  [ExtractEncodingFromLinear] #potential_supersets=91 
  2.13e-04s  0.00e+00d  [DetectDuplicateColumns] 
  7.22e-05s  0.00e+00d  [DetectDuplicateConstraints] #duplicates=5 
[Symmetry] Graph for symmetry has 4'871 nodes and 15'716 arcs.
[Symmetry] Symmetry computation done. time: 0.000910473 dtime: 0.00180722
[SAT presolve] num removable Booleans: 220 / 628
[SAT presolve] num trivial clauses: 0
[SAT presolve] [0s] clauses:2'740 literals:7'450 vars:507 one_side_vars:67 simple_definition:1 singleton_clauses:0
[SAT presolve] [0.000167854s] clauses:2'739 literals:7'443 vars:507 one_side_vars:67 simple_definition:1 singleton_clauses:0
[SAT presolve] [0.000497044s] clauses:2'254 literals:6'624 vars:381 one_side_vars:75 simple_definition:66 singleton_clauses:0
  9.62e-05s  0.00e+00d  [DetectDuplicateConstraintsWithDifferentEnforcements] #without_enforcements=6 
  4.03e-03s  2.40e-03d  [Probe] #probed=1'307 #fixed_bools=11 #equiv=7 #new_binary_clauses=1'269 
  3.58e-04s  3.40e-04d  [MaxClique] Merged 595 constraints with 1'353 literals into 503 constraints with 1'203 literals
  5.78e-04s  0.00e+00d  [DetectDominanceRelations] 
  2.17e-03s  0.00e+00d  [PresolveToFixPoint] #num_loops=1 #num_dual_strengthening=1 
  9.47e-04s  0.00e+00d  [ProcessAtMostOneAndLinear] 
  6.77e-05s  0.00e+00d  [DetectDuplicateConstraints] #duplicates=6 
  5.23e-05s  0.00e+00d  [DetectDuplicateConstraintsWithDifferentEnforcements] 
  1.62e-03s  8.44e-05d  [DetectDominatedLinearConstraints] #relevant_constraints=819 #num_inclusions=434 #num_redundant=7 
  8.87e-05s  0.00e+00d  [DetectDifferentVariables] 
  5.77e-04s  8.10e-05d  [ProcessSetPPC] #relevant_constraints=2'988 #num_inclusions=74 
  2.06e-04s  3.38e-05d  [TransformClausesToExactlyOne] #num_amos=511 #num_clauses=1'666 #num_checked=1'666 
  2.24e-05s  0.00e+00d  [DetectEncodedComplexDomains] 
  2.13e-05s  1.00e-07d  [FindAlmostIdenticalLinearConstraints] #num_tested_pairs=1 
  6.87e-04s  1.37e-03d  [FindBigAtMostOneAndLinearOverlap] 
  1.06e-03s  1.12e-03d  [FindBigVerticalLinearOverlap] #blocks=2 #saved_nz=92 
  2.52e-04s  6.54e-04d  [FindBigHorizontalLinearOverlap] #linears=459 
  2.26e-04s  2.68e-05d  [MergeClauses] #num_collisions=10 #num_merges=10 #num_saved_literals=50 
  5.70e-04s  0.00e+00d  [DetectDominanceRelations] 
  2.14e-03s  0.00e+00d  [PresolveToFixPoint] #num_loops=2 #num_dual_strengthening=1 
  5.64e-04s  0.00e+00d  [DetectDominanceRelations] 
  2.01e-03s  0.00e+00d  [PresolveToFixPoint] #num_loops=1 #num_dual_strengthening=1 
  1.52e-04s  0.00e+00d  [DetectDuplicateColumns] 
  5.73e-05s  0.00e+00d  [DetectDuplicateConstraints] 
[Symmetry] Graph for symmetry has 4'362 nodes and 13'617 arcs.
[Symmetry] Symmetry computation done. time: 0.000723793 dtime: 0.00141064
[SAT presolve] num removable Booleans: 93 / 489
[SAT presolve] num trivial clauses: 0
[SAT presolve] [0s] clauses:2'141 literals:6'325 vars:463 one_side_vars:156 simple_definition:81 singleton_clauses:0
[SAT presolve] [0.0001624s] clauses:2'139 literals:6'155 vars:463 one_side_vars:197 simple_definition:70 singleton_clauses:0
[SAT presolve] [0.00022384s] clauses:2'128 literals:6'144 vars:457 one_side_vars:199 simple_definition:52 singleton_clauses:0
  1.34e-04s  0.00e+00d  [DetectDuplicateConstraintsWithDifferentEnforcements] 
  4.20e-03s  2.13e-03d  [Probe] #probed=1'308 #new_binary_clauses=869 
  3.39e-04s  4.03e-04d  [MaxClique] Merged 516 constraints with 1'161 literals into 510 constraints with 1'159 literals
  5.86e-04s  0.00e+00d  [DetectDominanceRelations] 
  2.17e-03s  0.00e+00d  [PresolveToFixPoint] #num_loops=1 #num_dual_strengthening=1 
  8.48e-04s  0.00e+00d  [ProcessAtMostOneAndLinear] 
  9.31e-05s  0.00e+00d  [DetectDuplicateConstraints] 
  6.11e-05s  0.00e+00d  [DetectDuplicateConstraintsWithDifferentEnforcements] 
  1.51e-03s  7.46e-05d  [DetectDominatedLinearConstraints] #relevant_constraints=809 #num_inclusions=393 
  9.93e-05s  0.00e+00d  [DetectDifferentVariables] 
  5.75e-04s  7.47e-05d  [ProcessSetPPC] #relevant_constraints=3'042 #num_inclusions=98 
  2.11e-04s  3.33e-05d  [TransformClausesToExactlyOne] #num_amos=507 #num_clauses=1'670 #num_checked=1'670 
  9.36e-05s  0.00e+00d  [DetectEncodedComplexDomains] 
  2.57e-05s  1.80e-07d  [FindAlmostIdenticalLinearConstraints] #num_tested_pairs=2 
  6.77e-04s  1.23e-03d  [FindBigAtMostOneAndLinearOverlap] 
  1.03e-03s  1.04e-03d  [FindBigVerticalLinearOverlap] #blocks=2 #saved_nz=74 
  2.36e-04s  5.89e-04d  [FindBigHorizontalLinearOverlap] #linears=455 
  2.29e-04s  2.61e-05d  [MergeClauses] #num_collisions=73 #num_merges=73 #num_saved_literals=212 
  6.04e-04s  0.00e+00d  [DetectDominanceRelations] 
  2.24e-03s  0.00e+00d  [PresolveToFixPoint] #num_loops=2 #num_dual_strengthening=1 
  5.91e-04s  0.00e+00d  [DetectDominanceRelations] 
  2.06e-03s  0.00e+00d  [PresolveToFixPoint] #num_loops=1 #num_dual_strengthening=1 
  1.08e-04s  0.00e+00d  [DetectDuplicateColumns] 
  7.59e-05s  0.00e+00d  [DetectDuplicateConstraints] 
[Symmetry] Graph for symmetry has 4'325 nodes and 13'239 arcs.
[Symmetry] Symmetry computation done. time: 0.000717881 dtime: 0.00130853
[SAT presolve] num removable Booleans: 87 / 489
[SAT presolve] num trivial clauses: 0
[SAT presolve] [0s] clauses:2'140 literals:6'171 vars:465 one_side_vars:203 simple_definition:55 singleton_clauses:0
[SAT presolve] [0.000154676s] clauses:2'138 literals:6'163 vars:465 one_side_vars:203 simple_definition:55 singleton_clauses:0
[SAT presolve] [0.000201484s] clauses:2'138 literals:6'163 vars:465 one_side_vars:203 simple_definition:55 singleton_clauses:0
  1.58e-04s  0.00e+00d  [DetectDuplicateConstraintsWithDifferentEnforcements] 
  4.30e-03s  2.18e-03d  [Probe] #probed=1'320 #new_binary_clauses=897 
  3.58e-04s  4.21e-04d  [MaxClique] 
  6.07e-04s  0.00e+00d  [DetectDominanceRelations] 
  2.24e-03s  0.00e+00d  [PresolveToFixPoint] #num_loops=1 #num_dual_strengthening=1 
  8.74e-04s  0.00e+00d  [ProcessAtMostOneAndLinear] 
  9.43e-05s  0.00e+00d  [DetectDuplicateConstraints] 
  6.49e-05s  0.00e+00d  [DetectDuplicateConstraintsWithDifferentEnforcements] 
  7.79e-04s  5.88e-05d  [DetectDominatedLinearConstraints] #relevant_constraints=805 #num_inclusions=312 
  1.02e-04s  0.00e+00d  [DetectDifferentVariables] 
  5.68e-04s  7.11e-05d  [ProcessSetPPC] #relevant_constraints=3'054 #num_inclusions=85 
  2.27e-04s  3.36e-05d  [TransformClausesToExactlyOne] #num_amos=514 #num_clauses=1'682 #num_checked=1'682 
  1.05e-04s  0.00e+00d  [DetectEncodedComplexDomains] 
  3.61e-05s  1.90e-07d  [FindAlmostIdenticalLinearConstraints] #num_tested_pairs=2 
  6.54e-04s  1.13e-03d  [FindBigAtMostOneAndLinearOverlap] 
  9.85e-04s  9.72e-04d  [FindBigVerticalLinearOverlap] #blocks=2 #saved_nz=74 
  2.25e-04s  5.25e-04d  [FindBigHorizontalLinearOverlap] #linears=451 
  2.40e-04s  2.63e-05d  [MergeClauses] #num_collisions=73 #num_merges=73 #num_saved_literals=212 
  6.54e-04s  0.00e+00d  [DetectDominanceRelations] 
  2.33e-03s  0.00e+00d  [PresolveToFixPoint] #num_loops=2 #num_dual_strengthening=1 
  1.01e-05s  0.00e+00d  [MergeNoOverlap] 
  1.07e-05s  0.00e+00d  [MergeNoOverlap2D] 

Presolve summary:
  - 36 affine relations were detected.
  - rule 'TODO dual: only one blocking constraint?' was applied 886 times.
  - rule 'TODO dual: tighten at most one' was applied 8 times.
  - rule 'TODO linear inclusion: superset is equality' was applied 243 times.
  - rule 'affine: new relation' was applied 36 times.
  - rule 'at_most_one: removed literals' was applied 51 times.
  - rule 'at_most_one: size one' was applied 50 times.
  - rule 'at_most_one: transformed into max clique' was applied 2 times.
  - rule 'bool_or: implications' was applied 62 times.
  - rule 'bool_or: only one literal' was applied 12 times.
  - rule 'bool_or: removed enforcement literal' was applied 605 times.
  - rule 'deductions: 896 stored' was applied 1 time.
  - rule 'duplicate: merged rhs of linear constraint' was applied 10 times.
  - rule 'duplicate: removed constraint' was applied 11 times.
  - rule 'duplicate: removed enforced constraint' was applied 6 times.
  - rule 'enforcement: false literal' was applied 33 times.
  - rule 'enforcement: true literal' was applied 8 times.
  - rule 'exactly_one: removed literals' was applied 32 times.
  - rule 'exactly_one: satisfied' was applied 3 times.
  - rule 'exactly_one: singleton' was applied 3 times.
  - rule 'exactly_one: size two' was applied 29 times.
  - rule 'exactly_one: x and not(x)' was applied 5 times.
  - rule 'incompatible linear: add implication' was applied 132 times.
  - rule 'linear + amo: empty after processing' was applied 6 times.
  - rule 'linear + amo: extracted enforcement literal' was applied 62 times.
  - rule 'linear + amo: trivial linear constraint' was applied 1 time.
  - rule 'linear inclusion: redundant containing constraint' was applied 3 times.
  - rule 'linear inclusion: redundant included constraint' was applied 3 times.
  - rule 'linear inclusion: sparsify superset' was applied 1 time.
  - rule 'linear matrix: common vertical rectangle' was applied 6 times.
  - rule 'linear1: x in domain' was applied 26 times.
  - rule 'linear2: convert ax + by != cte to clauses' was applied 256 times.
  - rule 'linear2: convert implied ax + by == cte to clauses' was applied 126 times.
  - rule 'linear2: implied ax + by = cte has only one solution' was applied 8 times.
  - rule 'linear: always true' was applied 424 times.
  - rule 'linear: coefficient strengthening by increasing it' was applied 1 time.
  - rule 'linear: empty' was applied 1 time.
  - rule 'linear: extracted at most one (max)' was applied 1 time.
  - rule 'linear: fixed or dup variables' was applied 879 times.
  - rule 'linear: negative clause' was applied 1'303 times.
  - rule 'linear: negative reified and' was applied 78 times.
  - rule 'linear: never in domain' was applied 6 times.
  - rule 'linear: positive at most one' was applied 38 times.
  - rule 'linear: reduced variable domains' was applied 7 times.
  - rule 'linear: remapped using affine relations' was applied 22 times.
  - rule 'new_bool: integer encoding' was applied 18 times.
  - rule 'presolve: 76 unused variables removed.' was applied 1 time.
  - rule 'presolve: iteration' was applied 3 times.
  - rule 'probing: bool_or reduced to implication' was applied 26 times.
  - rule 'probing: simplified clauses' was applied 36 times.
  - rule 'setppc: bool_or in at_most_one' was applied 7 times.
  - rule 'setppc: removed dominated constraints' was applied 96 times.
  - rule 'variables: add encoding constraint' was applied 18 times.

Presolved satisfaction model '': (model_fingerprint: 0x5e63bac596c1ca8f)
#Variables: 501 (433 primary variables)
  - 495 Booleans in [0,1]
  - 6 in [0,2]
#kAtMostOne: 58 (#literals: 245)
#kBoolAnd: 280 (#enforced: 280) (#literals: 742)
#kBoolAndClauses: 73 (#enforced: 73 #multi: 73) (#literals: 358)
#kBoolOr: 1'552 (#literals: 4'729)
#kExactlyOne: 53 (#literals: 209)
#kLinear1: 36 (#enforced: 36)
#kLinearN: 801 (#enforced: 120) (#terms: 5'536)
[Symmetry] Graph for symmetry has 4'120 nodes and 13'239 arcs.
[Symmetry] Symmetry computation done. time: 0.000600215 dtime: 0.00133397

Preloading model.
#Model   0.07s var:501/501 constraints:2853/2853

Starting search at 0.07s with 4 workers.
3 full problem subsolvers: [default_lp, max_lp, no_lp]
1 first solution subsolver: [fj]
2 interleaved subsolvers: [feasibility_pump, rins/rens]
2 helper subsolvers: [neighborhood_helper, synchronization_agent]

#Model 118.14s var:500/501 constraints:2851/2853
#Model 885.50s var:499/501 constraints:2849/2853
#Model 2439.09s var:498/501 constraints:2831/2853

Task timing                   n [     min,      max]      avg      dev     time         n [     min,      max]      avg      dev    dtime
        'default_lp':         1 [  41.67m,   41.67m]   41.67m   0.00ns   41.67m         2 [  2.37ms,    1.05h]   31.57m   31.57m    1.05h
  'feasibility_pump':     14769 [ 20.42us,  92.40ms]   1.04ms 777.65us   15.34s     14767 [285.44us, 110.81ms] 294.90us 909.49us    4.35s
                'fj':     14769 [ 69.23ms, 132.93ms]  93.28ms   6.15ms   22.96m     14769 [100.00ms, 100.13ms] 100.02ms  12.69us   24.62m
            'max_lp':         1 [  41.67m,   41.67m]   41.67m   0.00ns   41.67m         2 [ 79.81ms,    1.39h]   41.74m   41.74m    1.39h
             'no_lp':         1 [  41.67m,   41.67m]   41.67m   0.00ns   41.67m         2 [  2.13ms,    1.98h]   59.51m   59.51m    1.98h
         'rins/rens':     14770 [ 13.11ms, 136.50ms]  74.85ms  28.21ms   18.43m     14769 [320.97us, 100.34ms]  68.60ms  36.92ms   16.89m

Search stats     Bools   Conflicts    Branches  Restarts  BacktrackToRoot   Backtrack     BoolPropag  IntegerPropag
  'default_lp':    495     362'500   9'187'111     2'041        1'367'583   2'080'660    103'494'311    120'513'471
      'max_lp':    495      95'921  14'029'602       734        2'166'815   2'784'583    149'519'551    196'138'632
       'no_lp':    495  28'062'336  36'231'781    94'684          586'357  28'373'994  2'466'075'616    630'124'419

SAT formula      Fixed  Equiv  Total  VarLeft  BinaryClauses  PermanentClauses  TemporaryClauses
  'default_lp':      3      2    495      490          2'880            52'004             8'913
      'max_lp':      3      2    495      490          2'880            51'058             9'042
       'no_lp':      3      2    495      490          2'880           152'614            11'888

SAT stats        ClassicMinim   LitRemoved  LitRemovedBinary   LitLearned  LitForgotten   Subsumed
  'default_lp':       323'206    3'974'345         2'213'680   11'172'725     7'730'305    122'438
      'max_lp':        84'053    1'068'745           596'116    2'429'726     1'270'838     36'715
       'no_lp':    25'429'755  422'839'617       122'260'626  650'122'902   498'955'317  8'341'838

Vivification       Clauses   Decisions  LitTrue  Subsumed  LitRemoved  DecisionReused  Conflicts
  'default_lp':  1'356'499   8'364'718        1    17'081     173'129         365'655      1'355
      'max_lp':  2'170'826  13'379'903        0    18'362     188'103         513'912      1'386
       'no_lp':    398'833   3'330'367        0    26'083     330'804          93'475        999

Clause deletion    at_true  l_and_not(l)  to_binary  sub_conflict  sub_extra  sub_decisions  sub_eager  sub_vivify  sub_probing  sub_inpro  blocked  eliminated   forgotten    promoted   conflicts
    'default_lp':      703             0          4       120'824        877          4'262      1'614      17'081        1'690     11'930        0           0     214'331     713'073     362'500
        'max_lp':      707             0          2        36'294        196            922        421      18'362        1'665      8'276        0           0      40'719     170'008      95'921
         'no_lp':    1'508             0          3     8'191'592     48'501        408'403    150'246      26'083        5'699    170'674        0           0  18'901'920  62'912'232  28'062'336

Lp stats         Component  Iterations  AddedCuts  OPTIMAL  DUAL_F.  DUAL_U.
  'default_lp':          1  47'517'919    131'263  523'861        1  311'179
      'max_lp':          1  22'032'600     95'077   40'990   67'348   45'299

Lp dimension        Final dimension of first component
  'default_lp':    361 rows, 349 columns, 8852 entries
      'max_lp':  1495 rows, 501 columns, 25071 entries

Lp debug         CutPropag  CutEqPropag   Adjust  Overflow        Bad  BadScaling
  'default_lp':          0           61  311'176         0  3'968'791           0
      'max_lp':          0          228   45'289         0  2'849'798           0

Lp pool          Constraints  Updates  Simplif  Merged  Shortened  Split  Strengthened        Cuts/Call
  'default_lp':       10'032   24'585        0       0          1      0             3  131'263/170'387
      'max_lp':       12'249   25'834        0       6         17      0         2'526   95'077/142'594

Lp Cut            default_lp  max_lp
          CG_FF:       1'447     141
           CG_K:         750      19
          CG_KL:         675      10
           CG_R:       1'552     113
          CG_RB:          64       9
         CG_RBP:          24       -
         Clique:           -     343
             IB:         116       9
       MIR_1_FF:         849     965
        MIR_1_K:         139      22
       MIR_1_KL:         599      26
        MIR_1_R:         751     397
       MIR_1_RB:           2       3
      MIR_1_RBP:           5       1
      MIR_1_RLT:           -  11'012
       MIR_2_FF:       1'316     911
        MIR_2_K:         293     138
       MIR_2_KL:         701      73
        MIR_2_R:       1'587     755
       MIR_2_RB:          10       9
      MIR_2_RBP:          24       4
       MIR_3_FF:         543     192
        MIR_3_K:         101      20
       MIR_3_KL:         181      20
        MIR_3_R:         701     284
       MIR_3_RB:          13      12
      MIR_3_RBP:          12       3
       MIR_4_FF:         159      70
        MIR_4_K:          39      10
       MIR_4_KL:          40       4
        MIR_4_R:         442     229
       MIR_4_RB:          10       8
      MIR_4_RBP:           9       -
       MIR_5_FF:          75      30
        MIR_5_K:          18       3
       MIR_5_KL:           9       1
        MIR_5_R:         313     178
       MIR_5_RB:           7       6
      MIR_5_RBP:           5       3
       MIR_6_FF:          56      11
        MIR_6_K:          19       4
       MIR_6_KL:           3       -
        MIR_6_R:         212     169
       MIR_6_RB:           9       9
      MIR_6_RBP:           5       4
   ZERO_HALF_FF:         615     800
    ZERO_HALF_K:         116      52
   ZERO_HALF_KL:         135      18
    ZERO_HALF_R:     116'471  77'907
   ZERO_HALF_RB:          18       3
  ZERO_HALF_RBP:          23      67

LNS stats       Improv/Calls  Closed  Difficulty  TimeLimit
  'rins/rens':   14769/14769     50%    7.63e-01       0.10

LS stats                                    Batches  Restarts/Perturbs    LinMoves    GenMoves  CompoundMoves  Bactracks  WeightUpdates  ScoreComputed
                             'fj_restart':    1'366                173  46'314'187           0              0          0     34'897'493     78'307'671
                    'fj_restart_compound':      779                198           0   9'116'523        493'221  4'311'297         22'408    146'708'578
                'fj_restart_compound_obj':      612                176           0   7'182'365        429'846  3'375'918         16'810    115'279'448
            'fj_restart_compound_perturb':      885                200           0  10'573'103        516'389  5'027'984         27'281    166'742'847
        'fj_restart_compound_perturb_obj':      720                183           0   8'519'800        462'297  4'028'390         20'730    135'690'636
                       'fj_restart_decay':    1'231                200  43'861'550           0              0          0      1'765'775     25'815'640
              'fj_restart_decay_compound':      810                171           0  10'619'326      1'737'970  4'440'276         10'996    155'037'083
          'fj_restart_decay_compound_obj':      778                191           0  10'021'852      1'639'847  4'190'497         10'597    148'727'132
      'fj_restart_decay_compound_perturb':      991                182           0  13'106'604      2'120'606  5'492'543         13'398    189'778'203
  'fj_restart_decay_compound_perturb_obj':    1'091                195           0  14'396'143      2'343'237  6'025'984         14'725    208'971'345
                   'fj_restart_decay_obj':    1'033                194  36'804'995           0              0          0      1'480'466     21'630'979
               'fj_restart_decay_perturb':      711                173  25'317'634           0              0          0      1'019'465     14'901'381
           'fj_restart_decay_perturb_obj':      920                180  32'786'877           0              0          0      1'318'709     19'272'870
                         'fj_restart_obj':      938                200  31'741'586           0              0          0     23'844'882     50'865'254
                     'fj_restart_perturb':      778                200  26'858'494           0              0          0     18'983'361     43'181'035
                 'fj_restart_perturb_obj':    1'126                171  37'691'149           0              0          0     29'325'057     64'497'821

Solution repositories    Added  Queried  Synchro
    'alternative_path':      0        0        0
      'best_solutions':      0        0        0
   'fj solution hints':  2'979        0    2'979
        'lp solutions':  1'043   14'770    1'018
                'pump':      0        0

Improving bounds shared    Num  Sym
            'default_lp':    2    0
                'max_lp':    1    0

Clauses shared    #Exported  #Imported  #BinaryRead  #BinaryTotal
   'default_lp':      2'731     69'977          340           340
       'max_lp':      2'560     69'999          340           340
        'no_lp':     68'914      5'415          340           340

LRAT_status: NA
CpSolverResponse summary:
status: UNKNOWN
objective: NA
best_bound: NA
integers: 361
booleans: 495
conflicts: 362500
branches: 9187111
propagations: 103494311
integer_propagations: 120513471
restarts: 2041
lp_iterations: 47517919
walltime: 2500.02
usertime: 2500.02
deterministic_time: 18432.7
gap_integral: 0

{
  "board_size": 22,
  "parity_proved": 0,
  "target": 34,
  "child_id": 2272,
  "child_count": 2640,
  "partition": "unknown_pair_x_diag_plus_twos_x_diag_minus_twos",
  "build_seconds": 0.052926063537597656,
  "workers": 4,
  "requested_seed": 2026074372,
  "effective_seed": 2026074372,
  "main_diagonal_pair": [
    5,
    15
  ],
  "pair_index": 94,
  "diag_plus_twos": 16,
  "diag_minus_twos": 16,
  "pair_excess": 3,
  "residual_certificate_slack": 109,
  "analytic_minimum_line_defect": 24,
  "analytic_defect_details": {
    "row_costs": {
      "12": 6,
      "13": 3,
      "14": 0,
      "15": 0,
      "16": 0,
      "17": 0
    },
    "column_costs": {
      "12": 6,
      "13": 3,
      "14": 0,
      "15": 0,
      "16": 0,
      "17": 0
    },
    "plus_cost": 24,
    "minus_cost": 0,
    "row_column_minimum": 0
  },
  "maximal_line_constraints": 2455,
  "analytic_infeasible": false,
  "allowed_points": 242,
  "status": "UNKNOWN",
  "proof_method": "cp_sat_all_lines_with_certificate_profile_cuts",
  "elapsed_seconds": 2500.020620584488,
  "branches": 9187111,
  "conflicts": 362500
}
